NAME          ClpDefau
ROWS
 N  OBJROW
 L  R_140_0
 L  R_140_1
 L  R_140_2
 L  R_140_3
 L  R_140_4
 L  R_140_5
 L  R_140_6
 L  R_140_7
 L  R_140_8
 L  R_140_9
 L  R_140_10
 L  R_140_11
 L  R_140_12
 L  R_140_13
 L  R_140_14
 L  R_140_15
 L  R_140_16
 L  R_140_17
 L  R_140_18
 L  R_140_19
 L  R_140_20
 L  R_140_21
 L  R_140_22
 L  R_140_23
 L  R_140_24
 L  R_140_25
 L  R_140_26
 L  R_140_27
 L  R_140_28
 L  R_140_29
 L  R_140_30
 L  R_140_31
COLUMNS
    x_0       OBJROW     -8.           R_140_15  3.          
    x_0       R_140_17  6.             R_140_18  9.          
    x_0       R_140_22  8.             R_140_31  7.          
    x_1       OBJROW     -12.          R_140_18  10.         
    x_2       OBJROW     -11.          R_140_1   6.          
    x_2       R_140_4   2.             R_140_5   1.          
    x_2       R_140_9   9.             R_140_10  5.          
    x_2       R_140_16  6.             R_140_19  2.          
    x_2       R_140_21  1.             R_140_23  3.          
    x_2       R_140_26  10.            R_140_27  4.          
    x_2       R_140_28  1.             R_140_29  10.         
    x_3       OBJROW     -47.          R_140_5   5.          
    x_3       R_140_13  8.             R_140_29  3.          
    x_3       R_140_30  4.          
    x_4       OBJROW     -22.          R_140_13  1.          
    x_4       R_140_15  9.             R_140_18  3.          
    x_4       R_140_20  1.          
    x_5       OBJROW     -95.          R_140_0   7.          
    x_5       R_140_6   2.             R_140_11  7.          
    x_5       R_140_12  5.             R_140_13  1.          
    x_5       R_140_15  8.             R_140_19  1.          
    x_5       R_140_22  8.             R_140_23  10.         
    x_5       R_140_26  6.             R_140_28  2.          
    x_5       R_140_29  10.         
    x_6       OBJROW     -86.          R_140_2   8.          
    x_6       R_140_25  6.             R_140_26  9.          
    x_6       R_140_27  7.          
    x_7       OBJROW     -40.          R_140_1   5.          
    x_7       R_140_6   5.             R_140_7   9.          
    x_7       R_140_14  3.             R_140_21  8.          
    x_7       R_140_27  5.          
    x_8       OBJROW     -33.          R_140_13  8.          
    x_8       R_140_17  2.             R_140_18  4.          
    x_8       R_140_23  9.             R_140_25  10.         
    x_8       R_140_29  7.          
    x_9       OBJROW     -78.          R_140_0   4.          
    x_9       R_140_7   10.            R_140_13  2.          
    x_9       R_140_23  8.             R_140_27  9.          
    x_9       R_140_29  1.          
    x_10      OBJROW     -28.          R_140_7   6.          
    x_10      R_140_14  4.             R_140_26  7.          
    x_11      OBJROW     -78.          R_140_3   8.          
    x_11      R_140_7   4.             R_140_11  3.          
    x_12      OBJROW     -5.           R_140_3   6.          
    x_12      R_140_5   3.             R_140_9   3.          
    x_12      R_140_21  6.             R_140_27  6.          
    x_13      OBJROW     -75.          R_140_4   3.          
    x_13      R_140_5   2.             R_140_8   9.          
    x_13      R_140_10  10.            R_140_13  8.          
    x_13      R_140_18  9.             R_140_26  2.          
    x_13      R_140_29  9.             R_140_31  5.          
    x_14      OBJROW     -88.          R_140_5   7.          
    x_14      R_140_7   8.             R_140_8   8.          
    x_14      R_140_12  9.             R_140_14  9.          
    x_14      R_140_20  8.             R_140_21  9.          
    x_14      R_140_22  2.          
    x_15      OBJROW     -21.          R_140_4   4.          
    x_15      R_140_5   4.             R_140_21  9.          
    x_15      R_140_25  3.             R_140_30  4.          
RHS
    RHS       R_140_0   20.            R_140_1   18.         
    RHS       R_140_2   16.            R_140_3   21.         
    RHS       R_140_4   17.            R_140_5   16.         
    RHS       R_140_6   17.            R_140_7   21.         
    RHS       R_140_8   21.            R_140_9   20.         
    RHS       R_140_10  17.            R_140_11  16.         
    RHS       R_140_12  21.            R_140_13  19.         
    RHS       R_140_14  21.            R_140_15  18.         
    RHS       R_140_16  17.            R_140_17  17.         
    RHS       R_140_18  18.            R_140_19  21.         
    RHS       R_140_20  18.            R_140_21  20.         
    RHS       R_140_22  20.            R_140_23  16.         
    RHS       R_140_24  19.            R_140_25  19.         
    RHS       R_140_26  21.            R_140_27  21.         
    RHS       R_140_28  16.            R_140_29  19.         
    RHS       R_140_30  18.            R_140_31  21.         
BOUNDS
 UI BOUND     x_0       100.        
 UI BOUND     x_1       100.        
 UI BOUND     x_2       100.        
 UI BOUND     x_3       100.        
 UI BOUND     x_4       100.        
 UI BOUND     x_5       100.        
 UI BOUND     x_6       100.        
 UI BOUND     x_7       100.        
 UI BOUND     x_8       100.        
 UI BOUND     x_9       100.        
 UI BOUND     x_10      100.        
 UI BOUND     x_11      100.        
 UI BOUND     x_12      100.        
 UI BOUND     x_13      100.        
 UI BOUND     x_14      100.        
 UI BOUND     x_15      100.        
ENDATA
